% Auto-generated by scripts/generate_dzn.py
% problem_type   = regex
% instance       = regex_90
% source_json    = instances_json/2_high_blowup/regex_90.json
% blowup         = 43.06666666666667
% representation = NFA

mode = 1;

var_count = 16;
Q = 30;
S = 2;
q0 = 1;
F = {29, 30};
d_dfa = array2d(1..30, 1..2, [
  0, 0,
  0, 0,
  0, 0,
  0, 0,
  0, 0,
  0, 0,
  0, 0,
  0, 0,
  0, 0,
  0, 0,
  0, 0,
  0, 0,
  0, 0,
  0, 0,
  0, 0,
  0, 0,
  0, 0,
  0, 0,
  0, 0,
  0, 0,
  0, 0,
  0, 0,
  0, 0,
  0, 0,
  0, 0,
  0, 0,
  0, 0,
  0, 0,
  0, 0,
  0, 0
]);
d_nfa = array2d(1..30, 1..2, [
  {2}, {3, 4},
  {2}, {3, 4},
  {2}, {3, 4},
  {}, {5},
  {}, {6},
  {7}, {8},
  {9}, {10},
  {9}, {10},
  {11}, {12},
  {11}, {12},
  {13}, {14},
  {13}, {14},
  {15}, {16},
  {15}, {16},
  {17}, {18},
  {17}, {18},
  {19}, {20},
  {19}, {20},
  {21}, {22},
  {21}, {22},
  {23}, {24},
  {23}, {24},
  {25}, {26},
  {25}, {26},
  {27}, {28},
  {27}, {28},
  {29}, {30},
  {29}, {30},
  {}, {},
  {}, {}
]);
